sudden Tr is enabled
Day	0	Optimize a model with 2744 rows, 29476 columns and 257821 nonzeros
Variable types: 280 continuous, 29196 integer (28496 binary)
Coefficient statistics:
  Matrix range     [1e+00, 1e+02]
  Objective range  [1e+00, 2e+03]
  Bounds range     [1e+00, 9e+01]
  RHS range        [1e+00, 1e+03]
Found heuristic solution: objective 179001
Presolve removed 340 rows and 3663 columns
Presolve time: 1.18s
Presolved: 2404 rows, 25813 columns, 186739 nonzeros
Variable types: 0 continuous, 25813 integer (25097 binary)

Root relaxation: objective 9.256000e+04, 900 iterations, 0.08 seconds

    Nodes    |    Current Node    |     Objective Bounds      |     Work
 Expl Unexpl |  Obj  Depth IntInf | Incumbent    BestBd   Gap | It/Node Time

     0     0 92560.0000    0   46 179001.000 92560.0000  48.3%     -    1s
H    0     0                    93353.000000 92560.0000  0.85%     -    1s
H    0     0                    92961.000000 92560.0000  0.43%     -    1s
H    0     0                    92701.000000 92560.0000  0.15%     -    1s
     0     0 92675.3636    0  134 92701.0000 92675.3636  0.03%     -    1s
     0     0 92675.3636    0   44 92701.0000 92675.3636  0.03%     -    1s
     0     0 92684.8333    0   21 92701.0000 92684.8333  0.02%     -    2s
     0     0 92697.6667    0    8 92701.0000 92697.6667  0.00%     -    2s

Cutting planes:
  Gomory: 6
  Cover: 25
  Clique: 32
  MIR: 29

Explored 0 nodes (2749 simplex iterations) in 2.03 seconds
Thread count was 1 (of 16 available processors)

Solution count 4: 92701 92961 93353 179001 
Pool objective bound 92698

Optimal solution found (tolerance 1.00e-04)
Best objective 9.270100000000e+04, best bound 9.269800000000e+04, gap 0.0032%
	MIPObjVal:	92701.0	runtime:	2.0337929725646973	patientsNumber:	140	room Occupancy:	0.7361111111111112	OR Occupancy:	0.6290471785383904
roomCost:	5690.0	genderPolicy:	0.0	transferCost:	0.0	delayCost:	305.0	overCrowdRisk:	6.0	overtime:	60.0	idleRoom:	11640.0	idleOR:	75000.0	eRoomIdle:	0.0	eORIdle:	0.0	roomU:	0.0	orU:	0.0
Day	1	Optimize a model with 2660 rows, 31272 columns and 279393 nonzeros
Variable types: 270 continuous, 31002 integer (30327 binary)
Coefficient statistics:
  Matrix range     [1e+00, 1e+02]
  Objective range  [1e+00, 2e+03]
  Bounds range     [1e+00, 9e+01]
  RHS range        [1e+00, 1e+03]
Found heuristic solution: objective 163447
Presolve removed 340 rows and 3914 columns
Presolve time: 0.82s
Presolved: 2320 rows, 27358 columns, 201212 nonzeros
Variable types: 0 continuous, 27358 integer (26667 binary)

Root relaxation: objective 7.948280e+04, 1049 iterations, 0.06 seconds

    Nodes    |    Current Node    |     Objective Bounds      |     Work
 Expl Unexpl |  Obj  Depth IntInf | Incumbent    BestBd   Gap | It/Node Time

     0     0 79482.8000    0  131 163447.000 79482.8000  51.4%     -    1s
H    0     0                    81096.000000 79482.8000  1.99%     -    1s
H    0     0                    80220.000000 79482.8000  0.92%     -    1s
H    0     0                    79733.000000 79482.8000  0.31%     -    1s
     0     0 79675.8333    0   80 79733.0000 79675.8333  0.07%     -    1s
     0     0 79675.8333    0   70 79733.0000 79675.8333  0.07%     -    2s
     0     0 79675.8333    0  113 79733.0000 79675.8333  0.07%     -    2s
     0     1 79675.8333    0  111 79733.0000 79675.8333  0.07%     -    2s

Cutting planes:
  Gomory: 4
  Cover: 24
  Clique: 12
  MIR: 8
  Flow cover: 10
  GUB cover: 2

Explored 5 nodes (4901 simplex iterations) in 2.93 seconds
Thread count was 1 (of 16 available processors)

Solution count 6: 79733 79733 79733 ... 163447
Pool objective bound 79726

Optimal solution found (tolerance 1.00e-04)
Best objective 7.973300000000e+04, best bound 7.972600000000e+04, gap 0.0088%
	MIPObjVal:	79733.0	runtime:	2.92992901802063	patientsNumber:	149	room Occupancy:	0.5555555555555556	OR Occupancy:	0.0
roomCost:	6490.0	genderPolicy:	0.0	transferCost:	0.0	delayCost:	230.0	overCrowdRisk:	13.0	overtime:	120.0	idleRoom:	9780.0	idleOR:	63100.0	eRoomIdle:	0.0	eORIdle:	0.0	roomU:	0.0	orU:	0.0
Day	2	Optimize a model with 2572 rows, 34205 columns and 313282 nonzeros
Variable types: 260 continuous, 33945 integer (33295 binary)
Coefficient statistics:
  Matrix range     [1e+00, 1e+02]
  Objective range  [1e+00, 2e+03]
  Bounds range     [1e+00, 9e+01]
  RHS range        [1e+00, 1e+03]
Found heuristic solution: objective 158597
Presolve removed 308 rows and 4557 columns
Presolve time: 0.86s
Presolved: 2264 rows, 29648 columns, 224669 nonzeros
Variable types: 0 continuous, 29648 integer (28975 binary)

Root relaxation: objective 7.218767e+04, 1450 iterations, 0.11 seconds

    Nodes    |    Current Node    |     Objective Bounds      |     Work
 Expl Unexpl |  Obj  Depth IntInf | Incumbent    BestBd   Gap | It/Node Time

     0     0 72187.6667    0  154 158597.000 72187.6667  54.5%     -    1s
H    0     0                    74793.000000 72187.6667  3.48%     -    1s
H    0     0                    73093.000000 72187.6667  1.24%     -    1s
H    0     0                    72585.000000 72187.6667  0.55%     -    1s
     0     0 72468.5370    0  219 72585.0000 72468.5370  0.16%     -    2s
     0     0 72468.5370    0  125 72585.0000 72468.5370  0.16%     -    2s
     0     0 72483.0883    0  287 72585.0000 72483.0883  0.14%     -    3s
     0     0 72499.8611    0  276 72585.0000 72499.8611  0.12%     -    3s
     0     0 72538.6695    0  207 72585.0000 72538.6695  0.06%     -    3s
     0     1 72539.1090    0  199 72585.0000 72539.1090  0.06%     -    4s
     7     6 72561.8807    0  225 72585.0000 72561.8807  0.03%  16.9    5s

Cutting planes:
  Gomory: 12
  Cover: 38
  Clique: 33
  MIR: 4
  Flow cover: 15
  GUB cover: 2
  Zero half: 25

Explored 19 nodes (8564 simplex iterations) in 6.09 seconds
Thread count was 1 (of 16 available processors)

Solution count 6: 72585 72585 72585 ... 158597
Pool objective bound 72580

Optimal solution found (tolerance 1.00e-04)
Best objective 7.258500000000e+04, best bound 7.258000000000e+04, gap 0.0069%
	MIPObjVal:	72585.0	runtime:	6.088382959365845	patientsNumber:	154	room Occupancy:	0.3888888888888889	OR Occupancy:	0.0
roomCost:	7200.0	genderPolicy:	0.0	transferCost:	0.0	delayCost:	935.0	overCrowdRisk:	20.0	overtime:	210.0	idleRoom:	7820.0	idleOR:	56400.0	eRoomIdle:	0.0	eORIdle:	0.0	roomU:	0.0	orU:	0.0
Day	3	Optimize a model with 2487 rows, 38519 columns and 351118 nonzeros
Variable types: 250 continuous, 38269 integer (37644 binary)
Coefficient statistics:
  Matrix range     [1e+00, 1e+02]
  Objective range  [1e+00, 2e+03]
  Bounds range     [1e+00, 9e+01]
  RHS range        [1e+00, 1e+03]
Found heuristic solution: objective 162445
Presolve removed 295 rows and 5148 columns
Presolve time: 1.05s
Presolved: 2192 rows, 33371 columns, 251457 nonzeros
Variable types: 0 continuous, 33371 integer (32719 binary)

Root relaxation: objective 6.433595e+04, 1695 iterations, 0.14 seconds

    Nodes    |    Current Node    |     Objective Bounds      |     Work
 Expl Unexpl |  Obj  Depth IntInf | Incumbent    BestBd   Gap | It/Node Time

     0     0 64335.9500    0  218 162445.000 64335.9500  60.4%     -    1s
H    0     0                    70295.000000 64335.9500  8.48%     -    1s
H    0     0                    67976.000000 64335.9500  5.35%     -    1s
H    0     0                    66699.000000 64335.9500  3.54%     -    1s
H    0     0                    65017.000000 64335.9500  1.05%     -    3s
     0     0 64849.9602    0  278 65017.0000 64849.9602  0.26%     -    4s
     0     0 64849.9602    0  151 65017.0000 64849.9602  0.26%     -    5s
     0     0 64849.9602    0  364 65017.0000 64849.9602  0.26%     -    5s
     0     0 64905.1287    0  389 65017.0000 64905.1287  0.17%     -    5s
     0     0 64944.7228    0  318 65017.0000 64944.7228  0.11%     -    5s
     0     2 64957.9701    0  314 65017.0000 64957.9701  0.09%     -    8s
    11    10 64984.7227    0  329 65017.0000 64984.7227  0.05%   6.5   10s
    35    27 64997.7177    0  327 65017.0000 64997.7177  0.03%   176   15s

Cutting planes:
  Gomory: 8
  Cover: 20
  Clique: 39
  MIR: 3
  Flow cover: 14
  GUB cover: 2
  Zero half: 15

Explored 72 nodes (15984 simplex iterations) in 19.74 seconds
Thread count was 1 (of 16 available processors)

Solution count 5: 65017 66699 67976 ... 162445
Pool objective bound 65012

Optimal solution found (tolerance 1.00e-04)
Best objective 6.501700000000e+04, best bound 6.501200000000e+04, gap 0.0077%
	MIPObjVal:	65017.0	runtime:	19.74299693107605	patientsNumber:	162	room Occupancy:	0.5694444444444444	OR Occupancy:	0.5596669750231268
roomCost:	7550.0	genderPolicy:	0.0	transferCost:	100.0	delayCost:	1270.0	overCrowdRisk:	17.0	overtime:	270.0	idleRoom:	5860.0	idleOR:	49950.0	eRoomIdle:	0.0	eORIdle:	0.0	roomU:	0.0	orU:	0.0
Day	4	Optimize a model with 2402 rows, 35940 columns and 323162 nonzeros
Variable types: 240 continuous, 35700 integer (35100 binary)
Coefficient statistics:
  Matrix range     [1e+00, 1e+02]
  Objective range  [1e+00, 2e+03]
  Bounds range     [1e+00, 9e+01]
  RHS range        [1e+00, 1e+03]
Found heuristic solution: objective 146998
Presolve removed 291 rows and 4409 columns
Presolve time: 0.93s
Presolved: 2111 rows, 31531 columns, 234796 nonzeros
Variable types: 0 continuous, 31531 integer (30917 binary)

Root relaxation: objective 5.414868e+04, 1969 iterations, 0.17 seconds

    Nodes    |    Current Node    |     Objective Bounds      |     Work
 Expl Unexpl |  Obj  Depth IntInf | Incumbent    BestBd   Gap | It/Node Time

     0     0 54148.6809    0  148 146998.000 54148.6809  63.2%     -    1s
H    0     0                    59580.000000 54148.6809  9.12%     -    1s
H    0     0                    55889.000000 54148.6809  3.11%     -    1s
H    0     0                    54845.000000 54148.6809  1.27%     -    3s
     0     0 54647.3431    0  269 54845.0000 54647.3431  0.36%     -    3s
     0     0 54647.3431    0  116 54845.0000 54647.3431  0.36%     -    4s
     0     0 54647.3431    0  287 54845.0000 54647.3431  0.36%     -    5s
     0     0 54688.1631    0  356 54845.0000 54688.1631  0.29%     -    5s
     0     0 54724.1657    0  332 54845.0000 54724.1657  0.22%     -    5s
     0     2 54737.4798    0  330 54845.0000 54737.4798  0.20%     -    8s
     6     7 54737.4798    0  304 54845.0000 54737.4798  0.20%  11.5   10s
    16    14 54770.2486    0   62 54845.0000 54770.2486  0.14%   428   15s
    38    30 54790.3446    0  269 54845.0000 54790.3446  0.10%   288   23s
    50    38 54794.8932    0  417 54845.0000 54794.8932  0.09%   219   25s
*   93    42              47    54837.000000 54799.8776  0.07%   189   29s
*  116    35              52    54827.000000 54804.5617  0.04%   164   29s
*  185    12              51    54826.000000 54819.0000  0.01%   123   29s

Cutting planes:
  Gomory: 13
  Cover: 54
  Clique: 36
  MIR: 20
  Flow cover: 61
  GUB cover: 2
  Zero half: 26

Explored 197 nodes (25943 simplex iterations) in 29.83 seconds
Thread count was 1 (of 16 available processors)

Solution count 7: 54826 54827 54837 ... 146998
Pool objective bound 54821

Optimal solution found (tolerance 1.00e-04)
Best objective 5.482600000000e+04, best bound 5.482100000000e+04, gap 0.0091%
	MIPObjVal:	54826.0	runtime:	29.82681107521057	patientsNumber:	170	room Occupancy:	0.7916666666666666	OR Occupancy:	0.8279370952821462
roomCost:	8020.0	genderPolicy:	50.0	transferCost:	0.0	delayCost:	2580.0	overCrowdRisk:	16.0	overtime:	270.0	idleRoom:	4240.0	idleOR:	39650.0	eRoomIdle:	0.0	eORIdle:	0.0	roomU:	0.0	orU:	0.0
Day	5	Optimize a model with 2311 rows, 33322 columns and 285101 nonzeros
Variable types: 230 continuous, 33092 integer (32517 binary)
Coefficient statistics:
  Matrix range     [1e+00, 1e+02]
  Objective range  [1e+00, 2e+03]
  Bounds range     [1e+00, 9e+01]
  RHS range        [1e+00, 1e+03]
Found heuristic solution: objective 129017
Presolve removed 291 rows and 3779 columns
Presolve time: 0.89s
Presolved: 2020 rows, 29543 columns, 210793 nonzeros
Variable types: 0 continuous, 29543 integer (28958 binary)

Root relaxation: objective 4.868530e+04, 1941 iterations, 0.17 seconds

    Nodes    |    Current Node    |     Objective Bounds      |     Work
 Expl Unexpl |  Obj  Depth IntInf | Incumbent    BestBd   Gap | It/Node Time

     0     0 48685.3000    0  131 129017.000 48685.3000  62.3%     -    1s
H    0     0                    53534.000000 48685.3000  9.06%     -    1s
H    0     0                    50554.000000 48685.3000  3.70%     -    1s
H    0     0                    50410.000000 48685.3000  3.42%     -    1s
H    0     0                    49223.000000 48685.3000  1.09%     -    2s
     0     0 48979.0289    0  248 49223.0000 48979.0289  0.50%     -    3s
     0     0 48979.0289    0  153 49223.0000 48979.0289  0.50%     -    3s
     0     0 48979.0289    0  244 49223.0000 48979.0289  0.50%     -    4s
     0     0 49054.9444    0   70 49223.0000 49054.9444  0.34%     -    4s
     0     0 49072.0322    0  232 49223.0000 49072.0322  0.31%     -    4s
     0     2 49078.1819    0  225 49223.0000 49078.1819  0.29%     -    7s
H    1     2                    49168.000000 49078.1819  0.18%  81.0    7s
    14    12 49103.4935    0  248 49168.0000 49103.4935  0.13%   437   11s
    39    29 49109.7369    0  327 49168.0000 49109.7369  0.12%   157   16s
H   44    30                    49163.000000 49111.5796  0.10%   222   17s
H   48    29                    49154.000000 49111.5796  0.09%   214   17s
*   61    22              33    49118.000000 49112.0076  0.01%   182   17s

Cutting planes:
  Gomory: 8
  Cover: 55
  Clique: 29
  MIR: 11
  Flow cover: 67
  Zero half: 29

Explored 64 nodes (14192 simplex iterations) in 17.70 seconds
Thread count was 1 (of 16 available processors)

Solution count 9: 49118 49154 49163 ... 129017
Pool objective bound 49115

Optimal solution found (tolerance 1.00e-04)
Best objective 4.911800000000e+04, best bound 4.911500000000e+04, gap 0.0061%
	MIPObjVal:	49118.0	runtime:	17.704041004180908	patientsNumber:	172	room Occupancy:	0.9166666666666666	OR Occupancy:	0.666049953746531
roomCost:	8550.0	genderPolicy:	50.0	transferCost:	0.0	delayCost:	2780.0	overCrowdRisk:	18.0	overtime:	210.0	idleRoom:	3160.0	idleOR:	34350.0	eRoomIdle:	0.0	eORIdle:	0.0	roomU:	0.0	orU:	0.0
Day	6	Optimize a model with 2223 rows, 31393 columns and 253179 nonzeros
Variable types: 220 continuous, 31173 integer (30623 binary)
Coefficient statistics:
  Matrix range     [1e+00, 1e+02]
  Objective range  [1e+00, 2e+03]
  Bounds range     [1e+00, 9e+01]
  RHS range        [1e+00, 1e+03]
Found heuristic solution: objective 109144
Presolve removed 278 rows and 4184 columns
Presolve time: 0.73s
Presolved: 1945 rows, 27209 columns, 185238 nonzeros
Found heuristic solution: objective 62896.000000
Variable types: 0 continuous, 27209 integer (26640 binary)

Root relaxation: objective 3.878044e+04, 2107 iterations, 0.18 seconds

    Nodes    |    Current Node    |     Objective Bounds      |     Work
 Expl Unexpl |  Obj  Depth IntInf | Incumbent    BestBd   Gap | It/Node Time

     0     0 38780.4429    0  185 62896.0000 38780.4429  38.3%     -    1s
H    0     0                    43998.000000 38780.4429  11.9%     -    1s
H    0     0                    40506.000000 38780.4429  4.26%     -    1s
H    0     0                    39283.000000 38780.4429  1.28%     -    2s
     0     0 39192.9141    0  281 39283.0000 39192.9141  0.23%     -    2s
     0     0 39192.9141    0  164 39283.0000 39192.9141  0.23%     -    3s
     0     0 39202.2179    0  181 39283.0000 39202.2179  0.21%     -    3s
     0     0 39209.5346    0  221 39283.0000 39209.5346  0.19%     -    3s
     0     0 39218.3568    0  243 39283.0000 39218.3568  0.16%     -    3s
     0     1 39222.9722    0  239 39283.0000 39222.9722  0.15%     -    5s

Explored 49 nodes (10974 simplex iterations) in 9.23 seconds
Thread count was 1 (of 16 available processors)

Solution count 6: 39283 39283 40506 ... 109094
Pool objective bound 39283

Optimal solution found (tolerance 1.00e-04)
Best objective 3.928300000000e+04, best bound 3.928300000000e+04, gap 0.0000%
	MIPObjVal:	39283.0	runtime:	9.233893871307373	patientsNumber:	177	room Occupancy:	0.9583333333333334	OR Occupancy:	0.4116558741905643
roomCost:	8440.0	genderPolicy:	50.0	transferCost:	0.0	delayCost:	3035.0	overCrowdRisk:	18.0	overtime:	390.0	idleRoom:	2400.0	idleOR:	24950.0	eRoomIdle:	0.0	eORIdle:	0.0	roomU:	0.0	orU:	0.0
Day	7	Optimize a model with 2144 rows, 35184 columns and 266108 nonzeros
Variable types: 210 continuous, 34974 integer (34449 binary)
Coefficient statistics:
  Matrix range     [1e+00, 1e+02]
  Objective range  [1e+00, 1e+03]
  Bounds range     [1e+00, 9e+01]
  RHS range        [1e+00, 1e+03]
Found heuristic solution: objective 100502
Presolve removed 258 rows and 4848 columns
Presolve time: 0.80s
Presolved: 1886 rows, 30336 columns, 197630 nonzeros
Variable types: 0 continuous, 30336 integer (29792 binary)

Root relaxation: objective 2.804506e+04, 2226 iterations, 0.20 seconds

    Nodes    |    Current Node    |     Objective Bounds      |     Work
 Expl Unexpl |  Obj  Depth IntInf | Incumbent    BestBd   Gap | It/Node Time

     0     0 28045.0571    0  160 100502.000 28045.0571  72.1%     -    1s
H    0     0                    32544.000000 28045.0571  13.8%     -    1s
H    0     0                    31227.000000 28045.0571  10.2%     -    1s
H    0     0                    28276.000000 28045.0571  0.82%     -    1s
     0     0 28230.3571    0  133 28276.0000 28230.3571  0.16%     -    1s
     0     0 28230.3571    0  132 28276.0000 28230.3571  0.16%     -    2s
     0     0 28241.6316    0  196 28276.0000 28241.6316  0.12%     -    2s
     0     0 28270.3333    0  160 28276.0000 28270.3333  0.02%     -    3s
     0     0     cutoff    0      28276.0000 28276.0000  0.00%     -    3s

Cutting planes:
  Gomory: 17
  Cover: 39
  Clique: 39
  MIR: 36
  GUB cover: 1
  Zero half: 14

Explored 0 nodes (6024 simplex iterations) in 3.17 seconds
Thread count was 1 (of 16 available processors)

Solution count 4: 28276 31227 32544 100502 
Pool objective bound 28276

Optimal solution found (tolerance 1.00e-04)
Best objective 2.827600000000e+04, best bound 2.827600000000e+04, gap 0.0000%
	MIPObjVal:	28276.0	runtime:	3.16837215423584	patientsNumber:	191	room Occupancy:	0.9722222222222222	OR Occupancy:	0.7631822386679001
roomCost:	7800.0	genderPolicy:	50.0	transferCost:	0.0	delayCost:	3125.0	overCrowdRisk:	21.0	overtime:	540.0	idleRoom:	1940.0	idleOR:	14800.0	eRoomIdle:	0.0	eORIdle:	0.0	roomU:	0.0	orU:	0.0
Day	8	Optimize a model with 2051 rows, 34888 columns and 252049 nonzeros
Variable types: 200 continuous, 34688 integer (34188 binary)
Coefficient statistics:
  Matrix range     [1e+00, 1e+02]
  Objective range  [1e+00, 1e+03]
  Bounds range     [1e+00, 9e+01]
  RHS range        [1e+00, 1e+03]
Found heuristic solution: objective 81462
Presolve removed 241 rows and 4534 columns
Presolve time: 0.65s
Presolved: 1810 rows, 30354 columns, 189293 nonzeros
Variable types: 0 continuous, 30354 integer (29838 binary)

Root relaxation: objective 2.319339e+04, 2037 iterations, 0.16 seconds

    Nodes    |    Current Node    |     Objective Bounds      |     Work
 Expl Unexpl |  Obj  Depth IntInf | Incumbent    BestBd   Gap | It/Node Time

     0     0 23193.3929    0  150 81462.0000 23193.3929  71.5%     -    0s
H    0     0                    26176.000000 23193.3929  11.4%     -    1s
H    0     0                    25138.000000 23193.3929  7.74%     -    1s
H    0     0                    23341.000000 23193.3929  0.63%     -    1s
     0     0 23305.1282    0  146 23341.0000 23305.1282  0.15%     -    1s
     0     0 23305.1282    0  115 23341.0000 23305.1282  0.15%     -    2s
H    0     0                    23340.000000 23305.1282  0.15%     -    2s
     0     0 23305.1282    0  119 23340.0000 23305.1282  0.15%     -    3s
     0     1 23306.7083    0  119 23340.0000 23306.7083  0.14%     -    3s
H   18    13                    23339.000000 23333.8760  0.02%   198    4s

Cutting planes:
  Gomory: 6
  Cover: 12
  Clique: 28
  Flow cover: 2
  GUB cover: 1
  Zero half: 7

Explored 26 nodes (9832 simplex iterations) in 4.80 seconds
Thread count was 1 (of 16 available processors)

Solution count 9: 23339 23339 23340 ... 81462
Pool objective bound 23338

Optimal solution found (tolerance 1.00e-04)
Best objective 2.333900000000e+04, best bound 2.333800000000e+04, gap 0.0043%
	MIPObjVal:	23339.0	runtime:	4.799009084701538	patientsNumber:	191	room Occupancy:	0.8888888888888888	OR Occupancy:	0.0
roomCost:	6630.0	genderPolicy:	0.0	transferCost:	0.0	delayCost:	2580.0	overCrowdRisk:	19.0	overtime:	540.0	idleRoom:	1620.0	idleOR:	11950.0	eRoomIdle:	0.0	eORIdle:	0.0	roomU:	0.0	orU:	0.0
Day	9	Optimize a model with 1960 rows, 33580 columns and 232881 nonzeros
Variable types: 190 continuous, 33390 integer (32915 binary)
Coefficient statistics:
  Matrix range     [1e+00, 1e+02]
  Objective range  [1e+00, 1e+03]
  Bounds range     [1e+00, 9e+01]
  RHS range        [1e+00, 1e+03]
Found heuristic solution: objective 71863
Presolve removed 230 rows and 4919 columns
Presolve time: 0.60s
Presolved: 1730 rows, 28661 columns, 170582 nonzeros
Variable types: 0 continuous, 28661 integer (28169 binary)

Root relaxation: objective 2.204655e+04, 2220 iterations, 0.19 seconds

    Nodes    |    Current Node    |     Objective Bounds      |     Work
 Expl Unexpl |  Obj  Depth IntInf | Incumbent    BestBd   Gap | It/Node Time

     0     0 22046.5549    0  101 71863.0000 22046.5549  69.3%     -    0s
H    0     0                    26092.000000 22046.5549  15.5%     -    1s
H    0     0                    23346.000000 22046.5549  5.57%     -    1s
H    0     0                    22829.000000 22046.5549  3.43%     -    1s
H    0     0                    22254.000000 22046.5549  0.93%     -    1s
     0     0 22181.9233    0  153 22254.0000 22181.9233  0.32%     -    2s
     0     0 22181.9233    0   80 22254.0000 22181.9233  0.32%     -    2s
     0     0 22181.9233    0  181 22254.0000 22181.9233  0.32%     -    3s
     0     0 22206.5770    0  165 22254.0000 22206.5770  0.21%     -    3s
     0     0 22213.9817    0  148 22254.0000 22213.9817  0.18%     -    3s
     0     1 22214.2039    0  147 22254.0000 22214.2039  0.18%     -    4s
     4     4 22214.2039    0   74 22254.0000 22214.2039  0.18%  57.5    5s
    52    37 22228.4438    0  219 22254.0000 22228.4438  0.11%  57.3   10s
H   63    40                    22241.000000 22230.1848  0.05%   119   11s
H   83    31                    22236.000000 22230.1848  0.03%  99.0   11s

Cutting planes:
  Gomory: 12
  Cover: 27
  Clique: 29
  MIR: 3
  Flow cover: 12
  GUB cover: 2
  Zero half: 17

Explored 93 nodes (15263 simplex iterations) in 11.81 seconds
Thread count was 1 (of 16 available processors)

Solution count 9: 22236 22241 22254 ... 71863
Pool objective bound 22235

Optimal solution found (tolerance 1.00e-04)
Best objective 2.223600000000e+04, best bound 2.223500000000e+04, gap 0.0045%
	MIPObjVal:	22236.0	runtime:	11.814985990524292	patientsNumber:	193	room Occupancy:	0.7777777777777778	OR Occupancy:	0.0
roomCost:	5980.0	genderPolicy:	0.0	transferCost:	0.0	delayCost:	2480.0	overCrowdRisk:	26.0	overtime:	540.0	idleRoom:	1260.0	idleOR:	11950.0	eRoomIdle:	0.0	eORIdle:	0.0	roomU:	0.0	orU:	0.0
Day	10	Optimize a model with 1866 rows, 35622 columns and 243682 nonzeros
Variable types: 180 continuous, 35442 integer (34992 binary)
Coefficient statistics:
  Matrix range     [1e+00, 1e+02]
  Objective range  [1e+00, 1e+03]
  Bounds range     [1e+00, 9e+01]
  RHS range        [1e+00, 1e+03]
Found heuristic solution: objective 73444
Presolve removed 225 rows and 5266 columns
Presolve time: 0.73s
Presolved: 1641 rows, 30356 columns, 179212 nonzeros
Variable types: 0 continuous, 30356 integer (29889 binary)

Root relaxation: objective 2.171708e+04, 2503 iterations, 0.24 seconds

    Nodes    |    Current Node    |     Objective Bounds      |     Work
 Expl Unexpl |  Obj  Depth IntInf | Incumbent    BestBd   Gap | It/Node Time

     0     0 21717.0842    0  169 73444.0000 21717.0842  70.4%     -    1s
H    0     0                    24442.000000 21717.0842  11.1%     -    1s
H    0     0                    22713.000000 21717.0842  4.38%     -    1s
H    0     0                    21933.000000 21717.0842  0.98%     -    3s
     0     0 21880.4968    0  152 21933.0000 21880.4968  0.24%     -    3s
     0     0 21880.4968    0  121 21933.0000 21880.4968  0.24%     -    4s
     0     0 21880.4968    0  264 21933.0000 21880.4968  0.24%     -    5s
     0     0 21904.1265    0  211 21933.0000 21904.1265  0.13%     -    5s
     0     0 21910.3361    0  213 21933.0000 21910.3361  0.10%     -    5s
     0     2 21914.5217    0  186 21933.0000 21914.5217  0.08%     -    6s
    30    24 21925.1386    0  265 21933.0000 21925.1386  0.04%   251   10s

Cutting planes:
  Gomory: 7
  Cover: 24
  Clique: 31
  MIR: 3
  Flow cover: 12
  GUB cover: 7
  Zero half: 29

Explored 68 nodes (16782 simplex iterations) in 12.09 seconds
Thread count was 1 (of 16 available processors)

Solution count 4: 21933 22713 24442 73444 
Pool objective bound 21932

Optimal solution found (tolerance 1.00e-04)
Best objective 2.193300000000e+04, best bound 2.193200000000e+04, gap 0.0046%
	MIPObjVal:	21933.0	runtime:	12.09290599822998	patientsNumber:	192	room Occupancy:	0.8333333333333334	OR Occupancy:	0.5272895467160037
roomCost:	6050.0	genderPolicy:	0.0	transferCost:	0.0	delayCost:	2735.0	overCrowdRisk:	28.0	overtime:	540.0	idleRoom:	680.0	idleOR:	11900.0	eRoomIdle:	0.0	eORIdle:	0.0	roomU:	0.0	orU:	0.0
Day	11	Optimize a model with 1770 rows, 35631 columns and 242548 nonzeros
Variable types: 170 continuous, 35461 integer (35036 binary)
Coefficient statistics:
  Matrix range     [1e+00, 1e+02]
  Objective range  [1e+00, 1e+03]
  Bounds range     [1e+00, 9e+01]
  RHS range        [1e+00, 1e+03]
Found heuristic solution: objective 62982
Presolve removed 211 rows and 5466 columns
Presolve time: 0.81s
Presolved: 1559 rows, 30165 columns, 177619 nonzeros
Variable types: 0 continuous, 30165 integer (29721 binary)

Root relaxation: objective 1.615530e+04, 2777 iterations, 0.25 seconds

    Nodes    |    Current Node    |     Objective Bounds      |     Work
 Expl Unexpl |  Obj  Depth IntInf | Incumbent    BestBd   Gap | It/Node Time

     0     0 16155.3035    0  146 62982.0000 16155.3035  74.3%     -    1s
H    0     0                    17707.000000 16155.3035  8.76%     -    1s
H    0     0                    17069.000000 16155.3035  5.35%     -    1s
H    0     0                    16426.000000 16155.3035  1.65%     -    3s
     0     0 16315.2132    0  253 16426.0000 16315.2132  0.67%     -    3s
     0     0 16336.3534    0  249 16426.0000 16336.3534  0.55%     -    3s
     0     0 16356.8114    0  222 16426.0000 16356.8114  0.42%     -    4s
     0     0 16356.8114    0  116 16426.0000 16356.8114  0.42%     -    5s
H    0     0                    16399.000000 16356.8114  0.26%     -    5s
     0     0 16356.8114    0  204 16399.0000 16356.8114  0.26%     -    5s
     0     0 16358.2230    0  222 16399.0000 16358.2230  0.25%     -    5s
     0     0 16363.5252    0  313 16399.0000 16363.5252  0.22%     -    5s
     0     2 16364.9306    0  305 16399.0000 16364.9306  0.21%     -    8s
H    3     3                    16396.000000 16364.9306  0.19%  37.3    9s
     4     3 16364.9306    0   82 16396.0000 16364.9306  0.19%  28.0   10s
    14    11 16372.1646    0  222 16396.0000 16372.1646  0.15%   308   15s
H   15    11                    16395.000000 16372.1646  0.14%   288   15s
    35    24 16373.0226    0  332 16395.0000 16373.0226  0.13%   123   20s
    47    32 16373.3055    0  372 16395.0000 16373.3055  0.13%  91.8   26s
H   64    32                    16394.000000 16381.5600  0.08%   188   27s
*  118    27              38    16389.000000 16383.3728  0.03%   126   28s
*  147     8              36    16388.000000 16385.5882  0.01%   113   28s

Cutting planes:
  Gomory: 7
  Cover: 27
  Clique: 51
  MIR: 4
  Flow cover: 15
  GUB cover: 4
  Zero half: 37

Explored 181 nodes (26561 simplex iterations) in 28.90 seconds
Thread count was 1 (of 16 available processors)

Solution count 10: 16388 16389 16394 ... 16426
Pool objective bound 16387

Optimal solution found (tolerance 1.00e-04)
Best objective 1.638800000000e+04, best bound 1.638700000000e+04, gap 0.0061%
	MIPObjVal:	16388.0	runtime:	28.898140907287598	patientsNumber:	189	room Occupancy:	0.9305555555555556	OR Occupancy:	0.6799259944495837
roomCost:	5490.0	genderPolicy:	0.0	transferCost:	0.0	delayCost:	3265.0	overCrowdRisk:	33.0	overtime:	480.0	idleRoom:	320.0	idleOR:	6800.0	eRoomIdle:	0.0	eORIdle:	0.0	roomU:	0.0	orU:	0.0
Day	12	Optimize a model with 1682 rows, 33457 columns and 209345 nonzeros
Variable types: 160 continuous, 33297 integer (32897 binary)
Coefficient statistics:
  Matrix range     [1e+00, 1e+02]
  Objective range  [1e+00, 1e+03]
  Bounds range     [1e+00, 9e+01]
  RHS range        [1e+00, 1e+03]
Found heuristic solution: objective 43885
Presolve removed 207 rows and 5169 columns
Presolve time: 0.74s
Presolved: 1475 rows, 28288 columns, 152713 nonzeros
Variable types: 0 continuous, 28288 integer (27874 binary)

Root relaxation: objective 1.118069e+04, 3067 iterations, 0.28 seconds

    Nodes    |    Current Node    |     Objective Bounds      |     Work
 Expl Unexpl |  Obj  Depth IntInf | Incumbent    BestBd   Gap | It/Node Time

     0     0 11180.6945    0   83 43885.0000 11180.6945  74.5%     -    1s
H    0     0                    13126.000000 11180.6945  14.8%     -    1s
H    0     0                    12068.000000 11180.6945  7.35%     -    2s
H    0     0                    11471.000000 11180.6945  2.53%     -    3s
     0     0 11328.9679    0  194 11471.0000 11328.9679  1.24%     -    4s
     0     0 11333.6044    0  199 11471.0000 11333.6044  1.20%     -    4s
     0     0 11350.8490    0  189 11471.0000 11350.8490  1.05%     -    4s
     0     0 11350.8490    0  119 11471.0000 11350.8490  1.05%     -    5s
H    0     0                    11401.000000 11350.8490  0.44%     -    5s
     0     0 11350.8490    0  170 11401.0000 11350.8490  0.44%     -    6s
     0     0 11350.8490    0  128 11401.0000 11350.8490  0.44%     -    6s
     0     0 11353.6111    0  225 11401.0000 11353.6111  0.42%     -    6s
     0     2 11354.8889    0  225 11401.0000 11354.8889  0.40%     -    9s
     2     3 11354.8889    0  189 11401.0000 11354.8889  0.40%   144   10s
H    3     3                    11371.000000 11354.8889  0.14%  96.0   11s
H    8     6                    11370.000000 11358.9607  0.10%   520   12s
H   11     9                    11369.000000 11359.0228  0.09%   388   14s
H   16    11                    11368.000000 11359.2517  0.08%   267   14s
    25    17 11359.7884    0  203 11368.0000 11359.7884  0.07%   171   15s
H   28    18                    11364.000000 11359.9638  0.04%   152   15s
H   32    20                    11360.000000 11359.9945  0.00%   259   15s

Cutting planes:
  Gomory: 11
  Cover: 22
  Clique: 43
  MIR: 6
  Flow cover: 11
  GUB cover: 8
  Zero half: 12

Explored 32 nodes (18372 simplex iterations) in 15.54 seconds
Thread count was 1 (of 16 available processors)

Solution count 10: 11360 11364 11368 ... 12068
Pool objective bound 11360

Optimal solution found (tolerance 1.00e-04)
Best objective 1.136000000000e+04, best bound 1.136000000000e+04, gap 0.0000%
	MIPObjVal:	11360.0	runtime:	15.538883924484253	patientsNumber:	194	room Occupancy:	0.9444444444444444	OR Occupancy:	0.8001850138760407
roomCost:	4340.0	genderPolicy:	0.0	transferCost:	0.0	delayCost:	3135.0	overCrowdRisk:	35.0	overtime:	360.0	idleRoom:	140.0	idleOR:	3350.0	eRoomIdle:	0.0	eORIdle:	0.0	roomU:	0.0	orU:	0.0
Day	13	Optimize a model with 1584 rows, 34256 columns and 197958 nonzeros
Variable types: 150 continuous, 34106 integer (33731 binary)
Coefficient statistics:
  Matrix range     [1e+00, 1e+02]
  Objective range  [1e+00, 1e+03]
  Bounds range     [1e+00, 9e+01]
  RHS range        [1e+00, 1e+03]
Found heuristic solution: objective 30820
Presolve removed 197 rows and 4943 columns
Presolve time: 0.63s
Presolved: 1387 rows, 29313 columns, 145206 nonzeros
Variable types: 0 continuous, 29313 integer (28927 binary)

Root relaxation: objective 6.398069e+03, 2786 iterations, 0.25 seconds

    Nodes    |    Current Node    |     Objective Bounds      |     Work
 Expl Unexpl |  Obj  Depth IntInf | Incumbent    BestBd   Gap | It/Node Time

     0     0 6398.06905    0  130 30820.0000 6398.06905  79.2%     -    1s
H    0     0                    7955.0000000 6398.06905  19.6%     -    1s
H    0     0                    6992.0000000 6398.06905  8.49%     -    1s
H    0     0                    6586.0000000 6398.06905  2.85%     -    2s
     0     0 6531.87018    0  219 6586.00000 6531.87018  0.82%     -    3s
     0     0 6533.71186    0  189 6586.00000 6533.71186  0.79%     -    3s
     0     0 6540.02448    0  173 6586.00000 6540.02448  0.70%     -    3s
     0     0 6540.02448    0   87 6586.00000 6540.02448  0.70%     -    4s
     0     0 6540.02448    0  203 6586.00000 6540.02448  0.70%     -    4s
     0     0 6540.02448    0  196 6586.00000 6540.02448  0.70%     -    4s
     0     0 6542.38094    0  184 6586.00000 6542.38094  0.66%     -    4s
     0     0 6543.30072    0  231 6586.00000 6543.30072  0.65%     -    4s
     0     0 6543.84628    0  289 6586.00000 6543.84628  0.64%     -    4s
     0     0 6543.84740    0  290 6586.00000 6543.84740  0.64%     -    4s
     0     0 6544.06286    0  263 6586.00000 6544.06286  0.64%     -    4s
     0     0 6544.17996    0  304 6586.00000 6544.17996  0.63%     -    4s
     0     0 6544.22503    0  284 6586.00000 6544.22503  0.63%     -    5s
     0     0 6544.22503    0  285 6586.00000 6544.22503  0.63%     -    5s
     0     0 6544.25974    0  287 6586.00000 6544.25974  0.63%     -    5s
     0     0 6544.41494    0  293 6586.00000 6544.41494  0.63%     -    5s
     0     0 6544.45098    0  164 6586.00000 6544.45098  0.63%     -    5s
     0     0 6544.45098    0  230 6586.00000 6544.45098  0.63%     -    5s
     0     0 6544.50000    0  230 6586.00000 6544.50000  0.63%     -    5s
     0     0 6544.50000    0  219 6586.00000 6544.50000  0.63%     -    5s
     0     0 6544.50000    0  209 6586.00000 6544.50000  0.63%     -    5s
     0     0 6544.50000    0  215 6586.00000 6544.50000  0.63%     -    5s
     0     0 6544.50000    0  246 6586.00000 6544.50000  0.63%     -    5s
     0     0 6544.50000    0  252 6586.00000 6544.50000  0.63%     -    5s
     0     0 6544.50000    0  193 6586.00000 6544.50000  0.63%     -    5s
     0     0 6544.50000    0  218 6586.00000 6544.50000  0.63%     -    5s
     0     0 6544.50000    0  188 6586.00000 6544.50000  0.63%     -    5s
     0     0 6544.50000    0  204 6586.00000 6544.50000  0.63%     -    5s
     0     0 6544.50000    0  203 6586.00000 6544.50000  0.63%     -    5s
     0     0 6544.50000    0  203 6586.00000 6544.50000  0.63%     -    6s
H    0     0                    6582.0000000 6544.50000  0.57%     -    6s
H    0     0                    6562.0000000 6544.50000  0.27%     -    8s
     0     2 6544.94444    0  202 6562.00000 6544.94444  0.26%     -    8s
    14    11 6547.25446    0  252 6562.00000 6547.25446  0.22%   5.1   10s
    45    33 6547.61477    0  227 6562.00000 6547.61477  0.22%   321   15s
H   49    34                    6555.0000000 6547.61477  0.11%   295   15s
H   57    37                    6551.0000000 6547.74364  0.05%   327   16s
*  126    61              64    6550.0000000 6548.50000  0.02%   230   19s

Cutting planes:
  Gomory: 13
  Cover: 32
  Clique: 34
  MIR: 1
  Flow cover: 9
  GUB cover: 7
  Zero half: 9

Explored 143 nodes (35137 simplex iterations) in 19.61 seconds
Thread count was 1 (of 16 available processors)

Solution count 10: 6550 6551 6555 ... 30820
Pool objective bound 6550

Optimal solution found (tolerance 1.00e-04)
Best objective 6.550000000000e+03, best bound 6.550000000000e+03, gap 0.0000%
	MIPObjVal:	6550.0	runtime:	19.609643936157227	patientsNumber:	189	room Occupancy:	0.9583333333333334	OR Occupancy:	0.8880666049953746
roomCost:	3120.0	genderPolicy:	0.0	transferCost:	0.0	delayCost:	2020.0	overCrowdRisk:	30.0	overtime:	120.0	idleRoom:	60.0	idleOR:	1200.0	eRoomIdle:	0.0	eORIdle:	0.0	roomU:	0.0	orU:	0.0
Room Occupancy:
OR Occupancy:
RoomCost:	16750	FeaturesCost:	10880	PreferenceCost:	3230	SpecialismCost:	2440	FixedGenderCost:	200	
GenderPolicy:	50	
TransferCost:	100	
DelayCost:	3085	
OvercrowdRisk:	82	
IdleRoom:	4000	
IdleOR:	37650	
OROORTO:	660	
OverRC:	0	
ORUORTU:	0	
Violations:	0	Total ObjVal:	62377	Runtime:	0.0
Room occupancy ratio:	0.8592857	OR occupancy ratio:	0.67592585
The dynamic result in	./Results/or_pas_dept2_short03_sol0.xml	violations:	0	total ObjVal:	62377	runtime:	190.778	average_patient_number:	175
